WARNING: for repeatability, setting FPU to use double precision
============================[ Problem Statistics ]=============================
|                                                                             |
|  Number of variables:       1318709                                         |
|  Number of clauses:         5163558                                         |
|  Parse time:                  15.27 s                                       |
|  Eliminated clauses:           9.94 Mb                                      |
|  Simplification time:       2285.79 s                                       |
|                                                                             |
============================[ Search Statistics ]==============================
| Conflicts |          ORIGINAL         |          LEARNT          | Progress |
|           |    Vars  Clauses Literals |    Limit  Clauses Lit/Cl |          |
===============================================================================
===============================================================================
restarts              : 1
conflicts             : 0              (0 /sec)
decisions             : 1              (0.00 % random) (0 /sec)
propagations          : 15612          (7 /sec)
conflict literals     : 0              (-nan % deleted)
Memory used           : 2506.00 MB
CPU time              : 2301.08 s

SATISFIABLE
